min: c;

c = 4.08770415553979 * u4_t1_h1 + 3.11040851268883 * u4_t1_h2 + 3.26611502405081 * u4_t1_h3 + 2.87919865606136 * u4_t1_h4 + 2.87919865606136 * u4_t10_h4 + 3.89335458125028 * u4_t1_h5 + 3.89335458125028 * u4_t10_h5 + 3.46963111769269 * u4_t1_h6 + 3.46963111769269 * u4_t10_h6 + 4.49469502008875 * u4_t1_h7 + 4.49469502008875 * u4_t10_h7 + 5.11308071097714 * u4_t1_h8 + 5.11308071097714 * u4_t9_h8 + 5.11308071097714 * u4_t10_h8 + 5.02834712565721 * u4_t9_h9 + 5.02834712565721 * u4_t10_h9 + 5.76361434708051 * u4_t9_h10 + 5.76361434708051 * u4_t10_h10 + 3.95826448552148 * u4_t2_h11 + 3.95826448552148 * u4_t4_h11 + 3.95826448552148 * u4_t9_h11 + 3.95826448552148 * u4_t10_h11 + 5.72505419104223 * u4_t2_h12 + 5.72505419104223 * u4_t3_h12 + 5.72505419104223 * u4_t4_h12 + 5.72505419104223 * u4_t8_h12 + 5.72505419104223 * u4_t9_h12 + 5.72505419104223 * u4_t10_h12 + 4.27924533136139 * u4_t2_h13 + 4.27924533136139 * u4_t3_h13 + 4.27924533136139 * u4_t4_h13 + 4.27924533136139 * u4_t8_h13 + 4.27924533136139 * u4_t9_h13 + 5.70815880811847 * u4_t2_h14 + 5.70815880811847 * u4_t3_h14 + 5.70815880811847 * u4_t4_h14 + 5.70815880811847 * u4_t8_h14 + 5.70815880811847 * u4_t9_h14 + 5.98003416608639 * u4_t2_h15 + 5.98003416608639 * u4_t3_h15 + 5.98003416608639 * u4_t4_h15 + 5.98003416608639 * u4_t8_h15 + 5.98003416608639 * u4_t9_h15 + 5.79206578024941 * u4_t2_h16 + 5.79206578024941 * u4_t3_h16 + 5.79206578024941 * u4_t4_h16 + 5.79206578024941 * u4_t5_h16 + 5.79206578024941 * u4_t8_h16 + 5.79206578024941 * u4_t9_h16 + 6.63430206050305 * u4_t2_h17 + 6.63430206050305 * u4_t3_h17 + 6.63430206050305 * u4_t5_h17 + 6.63430206050305 * u4_t8_h17 + 6.63430206050305 * u4_t9_h17 + 6.30965370653115 * u4_t2_h18 + 6.30965370653115 * u4_t3_h18 + 6.30965370653115 * u4_t5_h18 + 6.30965370653115 * u4_t8_h18 + 6.30965370653115 * u4_t9_h18 + 5.57156307927984 * u4_t2_h19 + 5.57156307927984 * u4_t3_h19 + 5.57156307927984 * u4_t6_h19 + 5.57156307927984 * u4_t8_h19 + 5.57156307927984 * u4_t9_h19 + 5.99982560754579 * u4_t2_h20 + 5.99982560754579 * u4_t6_h20 + 5.99982560754579 * u4_t9_h20 + 5.6983953809261 * u4_t6_h21 + 5.30277217071117 * u4_t6_h22 + 5.30277217071117 * u4_t7_h22 + 5.176008916071 * u4_t6_h23 + 5.176008916071 * u4_t7_h23;
0 <= u4_t1_h1 <= 1;
0 <= u4_t1_h2 <= 1;
0 <= u4_t1_h3 <= 1;
0 <= u4_t1_h4 <= 1;
0 <= u4_t1_h5 <= 1;
0 <= u4_t1_h6 <= 1;
0 <= u4_t1_h7 <= 1;
0 <= u4_t1_h8 <= 1;
u4_t1_h1 + u4_t1_h2 + u4_t1_h3 + u4_t1_h4 + u4_t1_h5 + u4_t1_h6 + u4_t1_h7 + u4_t1_h8 = 1;
0 <= u4_t2_h11 <= 1;
0 <= u4_t2_h12 <= 1;
0 <= u4_t2_h13 <= 1;
0 <= u4_t2_h14 <= 1;
0 <= u4_t2_h15 <= 1;
0 <= u4_t2_h16 <= 1;
0 <= u4_t2_h17 <= 1;
0 <= u4_t2_h18 <= 1;
0 <= u4_t2_h19 <= 1;
0 <= u4_t2_h20 <= 1;
u4_t2_h11 + u4_t2_h12 + u4_t2_h13 + u4_t2_h14 + u4_t2_h15 + u4_t2_h16 + u4_t2_h17 + u4_t2_h18 + u4_t2_h19 + u4_t2_h20 = 2;
0 <= u4_t3_h12 <= 1;
0 <= u4_t3_h13 <= 1;
0 <= u4_t3_h14 <= 1;
0 <= u4_t3_h15 <= 1;
0 <= u4_t3_h16 <= 1;
0 <= u4_t3_h17 <= 1;
0 <= u4_t3_h18 <= 1;
0 <= u4_t3_h19 <= 1;
u4_t3_h12 + u4_t3_h13 + u4_t3_h14 + u4_t3_h15 + u4_t3_h16 + u4_t3_h17 + u4_t3_h18 + u4_t3_h19 = 3;
0 <= u4_t4_h11 <= 1;
0 <= u4_t4_h12 <= 1;
0 <= u4_t4_h13 <= 1;
0 <= u4_t4_h14 <= 1;
0 <= u4_t4_h15 <= 1;
0 <= u4_t4_h16 <= 1;
u4_t4_h11 + u4_t4_h12 + u4_t4_h13 + u4_t4_h14 + u4_t4_h15 + u4_t4_h16 = 3;
0 <= u4_t5_h16 <= 1;
0 <= u4_t5_h17 <= 1;
0 <= u4_t5_h18 <= 1;
u4_t5_h16 + u4_t5_h17 + u4_t5_h18 = 1;
0 <= u4_t6_h19 <= 1;
0 <= u4_t6_h20 <= 1;
0 <= u4_t6_h21 <= 1;
0 <= u4_t6_h22 <= 1;
0 <= u4_t6_h23 <= 1;
u4_t6_h19 + u4_t6_h20 + u4_t6_h21 + u4_t6_h22 + u4_t6_h23 = 3;
0 <= u4_t7_h22 <= 1;
0 <= u4_t7_h23 <= 1;
u4_t7_h22 + u4_t7_h23 = 1;
0 <= u4_t8_h12 <= 1;
0 <= u4_t8_h13 <= 1;
0 <= u4_t8_h14 <= 1;
0 <= u4_t8_h15 <= 1;
0 <= u4_t8_h16 <= 1;
0 <= u4_t8_h17 <= 1;
0 <= u4_t8_h18 <= 1;
0 <= u4_t8_h19 <= 1;
u4_t8_h12 + u4_t8_h13 + u4_t8_h14 + u4_t8_h15 + u4_t8_h16 + u4_t8_h17 + u4_t8_h18 + u4_t8_h19 = 2;
0 <= u4_t9_h8 <= 1;
0 <= u4_t9_h9 <= 1;
0 <= u4_t9_h10 <= 1;
0 <= u4_t9_h11 <= 1;
0 <= u4_t9_h12 <= 1;
0 <= u4_t9_h13 <= 1;
0 <= u4_t9_h14 <= 1;
0 <= u4_t9_h15 <= 1;
0 <= u4_t9_h16 <= 1;
0 <= u4_t9_h17 <= 1;
0 <= u4_t9_h18 <= 1;
0 <= u4_t9_h19 <= 1;
0 <= u4_t9_h20 <= 1;
u4_t9_h8 + u4_t9_h9 + u4_t9_h10 + u4_t9_h11 + u4_t9_h12 + u4_t9_h13 + u4_t9_h14 + u4_t9_h15 + u4_t9_h16 + u4_t9_h17 + u4_t9_h18 + u4_t9_h19 + u4_t9_h20 = 2;
0 <= u4_t10_h4 <= 1;
0 <= u4_t10_h5 <= 1;
0 <= u4_t10_h6 <= 1;
0 <= u4_t10_h7 <= 1;
0 <= u4_t10_h8 <= 1;
0 <= u4_t10_h9 <= 1;
0 <= u4_t10_h10 <= 1;
0 <= u4_t10_h11 <= 1;
0 <= u4_t10_h12 <= 1;
u4_t10_h4 + u4_t10_h5 + u4_t10_h6 + u4_t10_h7 + u4_t10_h8 + u4_t10_h9 + u4_t10_h10 + u4_t10_h11 + u4_t10_h12 = 2;
